cost: 1109.09
Route 1:           0    3    4   12   14   11   25    0
Route 2:           0   10   39   35   21   33   31    1   46   29   18    0
Route 3:           0   26   43   49    2   42    0
Route 4:           0   27   22   37   30   44   38   47    0
Route 5:           0   32    6   36    9    0
Route 6:           0   40   16    5   28    0
Route 7:           0   45    8   24   13   15    0
Route 8:           0   48   41    7   19   34    0
Route 9:           0   17   23   50   20    0
